StudentsNr = 10;
InstructorsNr = 83;
DaysNr = 1;
SlotsPerDay = 60;
AvailabilitySlotsLenght = 20;
RoomNr = 1;
ProgrammNr = 1;
DegreeNr = 2;
RolesNr = 1;
CoursesNr = 4;
InstructorsProgramm = [{1}, {1}, {1}, {1}, {1}, {1}, {1}, {1}, {1}, {1}, {1}, {1}, {1}, {1}, {1}, {1}, {1}, {1}, {1}, {1}, {1}, {1}, {1}, {1}, {1}, {1}, {1}, {1}, {1}, {1}, {1}, {1}, {1}, {1}, {1}, {1}, {1}, {1}, {1}, {1}, {1}, {1}, {1}, {1}, {1}, {1}, {1}, {1}, {1}, {1}, {1}, {1}, {1}, {1}, {1}, {1}, {1}, {1}, {1}, {1}, {1}, {1}, {1}, {1}, {1}, {1}, {1}, {1}, {1}, {1}, {1}, {1}, {1}, {1}, {1}, {1}, {1}, {1}, {1}, {1}, {1}, {1}, {1}];
InstructorRolesPerProgramm = [|{1, 2, 5, 9, 10, 11, 12, 16, 17, 20, 22, 27, 28, 29, 32, 33, 40, 41, 42, 44, 45, 46, 50, 51, 52, 54, 55, 56, 57, 59, 61, 62, 63, 67, 70, 74, 75, 78, 80, 81, 82, 83}|];
InstructorsAvailability = [|1, 1, 1, |1, 1, 1, |1, 1, 0, |1, 1, 1, |1, 1, 1, |1, 1, 1, |0, 1, 1, |0, 1, 0, |1, 1, 1, |1, 0, 0, |0, 0, 0, |1, 1, 1, |1, 1, 1, |1, 1, 1, |1, 1, 1, |1, 1, 1, |0, 0, 0, |0, 0, 1, |1, 1, 1, |0, 1, 1, |0, 0, 0, |0, 0, 1, |0, 0, 0, |1, 1, 0, |0, 1, 0, |1, 1, 1, |0, 1, 1, |0, 1, 0, |1, 1, 1, |0, 0, 0, |0, 0, 1, |1, 1, 1, |1, 1, 1, |0, 1, 1, |0, 1, 1, |1, 1, 1, |0, 0, 1, |1, 0, 0, |0, 0, 0, |0, 0, 1, |0, 0, 1, |1, 1, 1, |1, 1, 1, |0, 0, 1, |0, 1, 1, |0, 1, 1, |0, 1, 0, |1, 1, 1, |0, 0, 1, |1, 1, 1, |0, 0, 1, |1, 1, 1, |1, 0, 1, |0, 1, 1, |1, 1, 1, |0, 0, 0, |1, 1, 1, |1, 1, 1, |0, 1, 1, |1, 1, 1, |0, 0, 1, |0, 0, 1, |1, 0, 0, |1, 1, 1, |0, 1, 1, |1, 0, 1, |1, 0, 0, |0, 1, 1, |0, 1, 1, |0, 1, 1, |0, 0, 1, |0, 0, 0, |0, 1, 1, |1, 1, 1, |1, 1, 1, |0, 1, 1, |0, 1, 0, |1, 1, 1, |1, 0, 1, |1, 1, 1, |0, 0, 1, |0, 0, 0, |1, 1, 1|];
StudentsProgramm = [1, 1, 1, 1, 1, 1, 1, 1, 1, 1];
StudentsDegree = [1, 2, 2, 1, 2, 1, 1, 1, 1, 1];
StudentsSupervisorId = [60, 64, 71, 11, 3, 22, 53, 23, 77, 6];
StudentsCourseIds = [{1, 2, 3, 4}, {1, 2, 3}, {1, 2, 4}, {1, 2, 3, 4}, {1, 3, 4}, {1, 2, 3, 4}, {1, 2, 3, 4}, {1, 2, 3, 4}, {1, 2, 3, 4}, {1, 2, 3, 4}];
StudentsAvailability = [|1, 1, 1, |1, 0, 1, |0, 1, 0, |1, 1, 1, |0, 1, 1, |0, 0, 0, |0, 1, 1, |0, 0, 0, |1, 1, 1, |0, 0, 0|];
TheoryticalMinCard = [0, 0, 0, 0, 1, 0, 0, 0, 0, 0];
CoursesInstructorIds = [{4, 8, 9, 12, 25, 26, 31, 33, 34, 40, 42, 43, 46, 48, 49, 53, 54, 58, 65, 70, 75}, {1, 3, 8, 9, 11, 14, 16, 19, 21, 22, 26, 27, 28, 29, 30, 32, 33, 34, 36, 37, 38, 39, 41, 42, 43, 44, 45, 46, 47, 49, 50, 53, 55, 56, 57, 59, 62, 63, 64, 65, 68, 69, 70, 71, 72, 73, 74, 75, 76, 77, 79, 80, 81, 83}, {1, 5, 6, 8, 15, 20, 21, 23, 24, 26, 27, 31, 42, 43, 44, 49, 54, 55, 56, 60, 63, 70, 71, 78, 82, 83}, {1, 2, 5, 7, 12, 13, 17, 18, 19, 21, 22, 24, 27, 36, 40, 41, 46, 49, 50, 55, 57, 61, 62, 64, 69, 76, 79, 82}];
RolesDemands = [15];
RolesContinuity = [];
ExamLen = [2, 1, 1, 2, 1, 2, 2, 2, 2, 2];
LunchTsMinLen = 0;
LunchStarts = [22..34];
SupervisorAvailable = 0;
OptimalLunchLenght = [2, 1];
OptimalStartTs = [2, 0];
OptimalFinishTs = [0, 60];
MinimizeRooms = 0;
RolesSoftContinuity = [|1|4|];
SameDegreeInRoom = 20;
Mergeability = 0;
